c b=4,c=521
p cnf 17 43
1 4 -8 0
4 -11 0
4 -17 0
1 -4 8 0
1 -4 11 0
-4 17 0
3 -7 0
1 3 -10 0
3 -16 0
-3 7 0
1 -3 10 0
-3 16 0
2 -6 0
1 2 -9 0
2 -15 0
-2 6 0
1 -2 9 0
-2 15 0
1 -5 0
1 -12 0
1 -14 0
-1 4 8 0
2 4 -9 0
-1 -4 -8 0
-1 2 -4 9 0
2 -4 11 0
2 3 -10 0
2 -3 10 0
2 -12 0
-2 4 9 0
3 4 -10 0
-1 -2 -4 -9 0
-1 -2 3 -4 10 0
3 -4 11 0
3 -12 0
-3 4 10 0
4 -12 0
-1 -2 -3 -4 -10 0
-1 -2 -3 -4 12 0
-1 -2 -3 -11 0
-1 5 0
-1 14 0
-13 0
